p cnf 963 2472
51 -2 -696 0
-51 2 0
-51 696 0
52 -51 -697 0
-52 51 0
-52 697 0
53 -5 -4 0
-53 5 0
-53 4 0
54 -53 -6 0
-54 53 0
-54 6 0
55 -698 -699 0
-55 698 0
-55 699 0
56 -8 -7 0
-56 8 0
-56 7 0
57 -56 -6 0
-57 56 0
-57 6 0
58 -700 -55 0
-58 700 0
-58 55 0
59 -9 -701 0
-59 9 0
-59 701 0
60 -59 -702 0
-60 59 0
-60 702 0
61 -703 -58 0
-61 703 0
-61 58 0
62 -704 -696 0
-62 704 0
-62 696 0
63 -62 -705 0
-63 62 0
-63 705 0
64 -706 -61 0
-64 706 0
-64 61 0
65 -707 -13 0
-65 707 0
-65 13 0
66 -65 -708 0
-66 65 0
-66 708 0
67 -709 -64 0
-67 709 0
-67 64 0
68 -17 -710 0
-68 17 0
-68 710 0
69 -68 -711 0
-69 68 0
-69 711 0
70 -712 -67 0
-70 712 0
-70 67 0
71 -20 -19 0
-71 20 0
-71 19 0
72 -71 -713 0
-72 71 0
-72 713 0
73 -714 -70 0
-73 714 0
-73 70 0
74 -715 -716 0
-74 715 0
-74 716 0
75 -74 -12 0
-75 74 0
-75 12 0
76 -717 -73 0
-76 717 0
-76 73 0
77 -718 -719 0
-77 718 0
-77 719 0
78 -77 -720 0
-78 77 0
-78 720 0
79 -721 -76 0
-79 721 0
-79 76 0
80 -25 -11 0
-80 25 0
-80 11 0
81 -80 -26 0
-81 80 0
-81 26 0
82 -722 -79 0
-82 722 0
-82 79 0
83 -27 -719 0
-83 27 0
-83 719 0
84 -83 -723 0
-84 83 0
-84 723 0
85 -724 -82 0
-85 724 0
-85 82 0
86 -19 -704 0
-86 19 0
-86 704 0
87 -86 -725 0
-87 86 0
-87 725 0
88 -726 -85 0
-88 726 0
-88 85 0
89 -727 -13 0
-89 727 0
-89 13 0
90 -89 -725 0
-90 89 0
-90 725 0
91 -728 -88 0
-91 728 0
-91 88 0
92 -729 -31 0
-92 729 0
-92 31 0
93 -92 -710 0
-93 92 0
-93 710 0
94 -730 -91 0
-94 730 0
-94 91 0
95 -33 -26 0
-95 33 0
-95 26 0
96 -95 -731 0
-96 95 0
-96 731 0
97 -732 -94 0
-97 732 0
-97 94 0
98 -35 -719 0
-98 35 0
-98 719 0
99 -98 -36 0
-99 98 0
-99 36 0
100 -733 -97 0
-100 733 0
-100 97 0
101 -37 -719 0
-101 37 0
-101 719 0
102 -101 -702 0
-102 101 0
-102 702 0
103 -734 -100 0
-103 734 0
-103 100 0
104 -38 -21 0
-104 38 0
-104 21 0
105 -104 -735 0
-105 104 0
-105 735 0
106 -736 -103 0
-106 736 0
-106 103 0
107 -737 -37 0
-107 737 0
-107 37 0
108 -107 -738 0
-108 107 0
-108 738 0
109 -739 -106 0
-109 739 0
-109 106 0
110 -31 -21 0
-110 31 0
-110 21 0
111 -110 -18 0
-111 110 0
-111 18 0
112 -740 -109 0
-112 740 0
-112 109 0
113 -741 -742 0
-113 741 0
-113 742 0
114 -113 -738 0
-114 113 0
-114 738 0
115 -743 -112 0
-115 743 0
-115 112 0
116 -42 -704 0
-116 42 0
-116 704 0
117 -116 -744 0
-117 116 0
-117 744 0
118 -745 -115 0
-118 745 0
-118 115 0
119 -30 -746 0
-119 30 0
-119 746 0
120 -119 -3 0
-120 119 0
-120 3 0
121 -747 -118 0
-121 747 0
-121 118 0
122 -741 -30 0
-122 741 0
-122 30 0
123 -122 -702 0
-123 122 0
-123 702 0
124 -748 -121 0
-124 748 0
-124 121 0
125 -44 -24 0
-125 44 0
-125 24 0
126 -125 -17 0
-126 125 0
-126 17 0
127 -749 -124 0
-127 749 0
-127 124 0
128 -45 -31 0
-128 45 0
-128 31 0
129 -128 -750 0
-129 128 0
-129 750 0
130 -751 -127 0
-130 751 0
-130 127 0
131 -752 -720 0
-131 752 0
-131 720 0
132 -131 -750 0
-132 131 0
-132 750 0
133 -753 -130 0
-133 753 0
-133 130 0
134 -754 -729 0
-134 754 0
-134 729 0
135 -134 -708 0
-135 134 0
-135 708 0
136 -755 -133 0
-136 755 0
-136 133 0
137 -47 -727 0
-137 47 0
-137 727 0
138 -137 -697 0
-138 137 0
-138 697 0
139 -756 -136 0
-139 756 0
-139 136 0
140 -757 -2 0
-140 757 0
-140 2 0
141 -140 -35 0
-141 140 0
-141 35 0
142 -758 -139 0
-142 758 0
-142 139 0
143 -37 -1 0
-143 37 0
-143 1 0
144 -143 -39 0
-144 143 0
-144 39 0
145 -759 -142 0
-145 759 0
-145 142 0
146 -4 -1 0
-146 4 0
-146 1 0
147 -146 -744 0
-147 146 0
-147 744 0
148 -760 -145 0
-148 760 0
-148 145 0
149 -761 -12 0
-149 761 0
-149 12 0
150 -149 -746 0
-150 149 0
-150 746 0
151 -762 -148 0
-151 762 0
-151 148 0
152 -727 -763 0
-152 727 0
-152 763 0
153 -152 -47 0
-153 152 0
-153 47 0
154 -764 -151 0
-154 764 0
-154 151 0
155 -41 -765 0
-155 41 0
-155 765 0
156 -155 -710 0
-156 155 0
-156 710 0
157 -766 -154 0
-157 766 0
-157 154 0
158 -42 -24 0
-158 42 0
-158 24 0
159 -158 -40 0
-159 158 0
-159 40 0
160 -767 -157 0
-160 767 0
-160 157 0
161 -48 -29 0
-161 48 0
-161 29 0
162 -161 -761 0
-162 161 0
-162 761 0
163 -768 -160 0
-163 768 0
-163 160 0
164 -50 -754 0
-164 50 0
-164 754 0
165 -164 -12 0
-165 164 0
-165 12 0
166 -769 -163 0
-166 769 0
-166 163 0
167 -49 -716 0
-167 49 0
-167 716 0
168 -167 -746 0
-168 167 0
-168 746 0
169 -770 -166 0
-169 770 0
-169 166 0
170 -7 -6 0
-170 7 0
-170 6 0
171 -170 -741 0
-171 170 0
-171 741 0
172 -771 -169 0
-172 771 0
-172 169 0
173 -741 -7 0
-173 741 0
-173 7 0
174 -173 -12 0
-174 173 0
-174 12 0
175 -772 -172 0
-175 772 0
-175 172 0
176 -44 -773 0
-176 44 0
-176 773 0
177 -176 -711 0
-177 176 0
-177 711 0
178 -774 -175 0
-178 774 0
-178 175 0
179 -775 -27 0
-179 775 0
-179 27 0
180 -179 -741 0
-180 179 0
-180 741 0
181 -776 -178 0
-181 776 0
-181 178 0
182 -777 -20 0
-182 777 0
-182 20 0
183 -182 -28 0
-183 182 0
-183 28 0
184 -778 -181 0
-184 778 0
-184 181 0
185 -779 -5 0
-185 779 0
-185 5 0
186 -185 -735 0
-186 185 0
-186 735 0
187 -780 -184 0
-187 780 0
-187 184 0
188 -44 -725 0
-188 44 0
-188 725 0
189 -188 -49 0
-189 188 0
-189 49 0
190 -781 -187 0
-190 781 0
-190 187 0
191 -11 -701 0
-191 11 0
-191 701 0
192 -191 -38 0
-192 191 0
-192 38 0
193 -782 -190 0
-193 782 0
-193 190 0
194 -783 -22 0
-194 783 0
-194 22 0
195 -194 -24 0
-195 194 0
-195 24 0
196 -784 -193 0
-196 784 0
-196 193 0
197 -42 -696 0
-197 42 0
-197 696 0
198 -197 -738 0
-198 197 0
-198 738 0
199 -785 -196 0
-199 785 0
-199 196 0
200 -742 -719 0
-200 742 0
-200 719 0
201 -200 -18 0
-201 200 0
-201 18 0
202 -786 -199 0
-202 786 0
-202 199 0
203 -51 -775 0
-203 51 0
-203 775 0
204 -787 -202 0
-204 787 0
-204 202 0
205 -25 -715 0
-205 25 0
-205 715 0
206 -205 -3 0
-206 205 0
-206 3 0
207 -788 -204 0
-207 788 0
-207 204 0
208 -17 -8 0
-208 17 0
-208 8 0
209 -208 -15 0
-209 208 0
-209 15 0
210 -789 -207 0
-210 789 0
-210 207 0
211 -92 -28 0
-211 92 0
-211 28 0
212 -790 -210 0
-212 790 0
-212 210 0
213 -783 -14 0
-213 783 0
-213 14 0
214 -213 -46 0
-214 213 0
-214 46 0
215 -791 -212 0
-215 791 0
-215 212 0
216 -727 -8 0
-216 727 0
-216 8 0
217 -216 -750 0
-217 216 0
-217 750 0
218 -792 -215 0
-218 792 0
-218 215 0
219 -793 -25 0
-219 793 0
-219 25 0
220 -219 -737 0
-220 219 0
-220 737 0
221 -794 -218 0
-221 794 0
-221 218 0
222 -718 -8 0
-222 718 0
-222 8 0
223 -222 -720 0
-223 222 0
-223 720 0
224 -795 -221 0
-224 795 0
-224 221 0
225 -765 -27 0
-225 765 0
-225 27 0
226 -225 -10 0
-226 225 0
-226 10 0
227 -796 -224 0
-227 796 0
-227 224 0
228 -729 -797 0
-228 729 0
-228 797 0
229 -228 -10 0
-229 228 0
-229 10 0
230 -798 -227 0
-230 798 0
-230 227 0
231 -799 -8 0
-231 799 0
-231 8 0
232 -231 -711 0
-232 231 0
-232 711 0
233 -800 -230 0
-233 800 0
-233 230 0
234 -35 -8 0
-234 35 0
-234 8 0
235 -234 -15 0
-235 234 0
-235 15 0
236 -801 -233 0
-236 801 0
-236 233 0
237 -775 -752 0
-237 775 0
-237 752 0
238 -237 -11 0
-238 237 0
-238 11 0
239 -802 -236 0
-239 802 0
-239 236 0
240 -24 -718 0
-240 24 0
-240 718 0
241 -240 -17 0
-241 240 0
-241 17 0
242 -803 -239 0
-242 803 0
-242 239 0
243 -29 -752 0
-243 29 0
-243 752 0
244 -243 -723 0
-244 243 0
-244 723 0
245 -804 -242 0
-245 804 0
-245 242 0
246 -42 -723 0
-246 42 0
-246 723 0
247 -246 -702 0
-247 246 0
-247 702 0
248 -805 -245 0
-248 805 0
-248 245 0
249 -29 -18 0
-249 29 0
-249 18 0
250 -249 -34 0
-250 249 0
-250 34 0
251 -806 -248 0
-251 806 0
-251 248 0
252 -36 -21 0
-252 36 0
-252 21 0
253 -252 -697 0
-253 252 0
-253 697 0
254 -807 -251 0
-254 807 0
-254 251 0
255 -8 -4 0
-255 8 0
-255 4 0
256 -255 -741 0
-256 255 0
-256 741 0
257 -808 -254 0
-257 808 0
-257 254 0
258 -793 -713 0
-258 793 0
-258 713 0
259 -258 -18 0
-259 258 0
-259 18 0
260 -809 -257 0
-260 809 0
-260 257 0
261 -725 -716 0
-261 725 0
-261 716 0
262 -261 -35 0
-262 261 0
-262 35 0
263 -810 -260 0
-263 810 0
-263 260 0
264 -44 -697 0
-264 44 0
-264 697 0
265 -264 -40 0
-265 264 0
-265 40 0
266 -811 -263 0
-266 811 0
-266 263 0
267 -754 -719 0
-267 754 0
-267 719 0
268 -267 -6 0
-268 267 0
-268 6 0
269 -812 -266 0
-269 812 0
-269 266 0
270 -720 -746 0
-270 720 0
-270 746 0
271 -270 -18 0
-271 270 0
-271 18 0
272 -813 -269 0
-272 813 0
-272 269 0
273 -11 -5 0
-273 11 0
-273 5 0
274 -273 -731 0
-274 273 0
-274 731 0
275 -814 -272 0
-275 814 0
-275 272 0
276 -37 -22 0
-276 37 0
-276 22 0
277 -276 -35 0
-277 276 0
-277 35 0
278 -815 -275 0
-278 815 0
-278 275 0
279 -761 -21 0
-279 761 0
-279 21 0
280 -279 -3 0
-280 279 0
-280 3 0
281 -816 -278 0
-281 816 0
-281 278 0
282 -45 -713 0
-282 45 0
-282 713 0
283 -282 -43 0
-283 282 0
-283 43 0
284 -817 -281 0
-284 817 0
-284 281 0
285 -818 -12 0
-285 818 0
-285 12 0
286 -285 -39 0
-286 285 0
-286 39 0
287 -819 -284 0
-287 819 0
-287 284 0
288 -38 -34 0
-288 38 0
-288 34 0
289 -288 -46 0
-289 288 0
-289 46 0
290 -820 -287 0
-290 820 0
-290 287 0
291 -723 -742 0
-291 723 0
-291 742 0
292 -291 -40 0
-292 291 0
-292 40 0
293 -821 -290 0
-293 821 0
-293 290 0
294 -48 -9 0
-294 48 0
-294 9 0
295 -294 -750 0
-295 294 0
-295 750 0
296 -822 -293 0
-296 822 0
-296 293 0
297 -37 -19 0
-297 37 0
-297 19 0
298 -297 -727 0
-298 297 0
-298 727 0
299 -823 -296 0
-299 823 0
-299 296 0
300 -725 -1 0
-300 725 0
-300 1 0
301 -300 -746 0
-301 300 0
-301 746 0
302 -824 -299 0
-302 824 0
-302 299 0
303 -752 -2 0
-303 752 0
-303 2 0
304 -303 -28 0
-304 303 0
-304 28 0
305 -825 -302 0
-305 825 0
-305 302 0
306 -826 -779 0
-306 826 0
-306 779 0
307 -306 -735 0
-307 306 0
-307 735 0
308 -827 -305 0
-308 827 0
-308 305 0
309 -793 -49 0
-309 793 0
-309 49 0
310 -309 -10 0
-310 309 0
-310 10 0
311 -828 -308 0
-311 828 0
-311 308 0
312 -33 -829 0
-312 33 0
-312 829 0
313 -312 -48 0
-313 312 0
-313 48 0
314 -830 -311 0
-314 830 0
-314 311 0
315 -19 -2 0
-315 19 0
-315 2 0
316 -315 -697 0
-316 315 0
-316 697 0
317 -831 -314 0
-317 831 0
-317 314 0
318 -754 -707 0
-318 754 0
-318 707 0
319 -318 -832 0
-319 318 0
-319 832 0
320 -833 -317 0
-320 833 0
-320 317 0
321 -826 -1 0
-321 826 0
-321 1 0
322 -321 -834 0
-322 321 0
-322 834 0
323 -835 -320 0
-323 835 0
-323 320 0
324 -27 -23 0
-324 27 0
-324 23 0
325 -324 -738 0
-325 324 0
-325 738 0
326 -836 -323 0
-326 836 0
-326 323 0
327 -185 -738 0
-327 185 0
-327 738 0
328 -837 -326 0
-328 837 0
-328 326 0
329 -799 -727 0
-329 799 0
-329 727 0
330 -329 -41 0
-330 329 0
-330 41 0
331 -838 -328 0
-331 838 0
-331 328 0
332 -729 -705 0
-332 729 0
-332 705 0
333 -332 -35 0
-333 332 0
-333 35 0
334 -839 -331 0
-334 839 0
-334 331 0
335 -44 -763 0
-335 44 0
-335 763 0
336 -335 -2 0
-336 335 0
-336 2 0
337 -840 -334 0
-337 840 0
-337 334 0
338 -777 -34 0
-338 777 0
-338 34 0
339 -338 -36 0
-339 338 0
-339 36 0
340 -841 -337 0
-340 841 0
-340 337 0
341 -19 -8 0
-341 19 0
-341 8 0
342 -341 -799 0
-342 341 0
-342 799 0
343 -842 -340 0
-343 842 0
-343 340 0
344 -41 -701 0
-344 41 0
-344 701 0
345 -344 -735 0
-345 344 0
-345 735 0
346 -843 -343 0
-346 843 0
-346 343 0
347 -20 -719 0
-347 20 0
-347 719 0
348 -347 -16 0
-348 347 0
-348 16 0
349 -844 -346 0
-349 844 0
-349 346 0
350 -715 -7 0
-350 715 0
-350 7 0
351 -350 -720 0
-351 350 0
-351 720 0
352 -845 -349 0
-352 845 0
-352 349 0
353 -27 -829 0
-353 27 0
-353 829 0
354 -353 -36 0
-354 353 0
-354 36 0
355 -846 -352 0
-355 846 0
-355 352 0
356 -729 -13 0
-356 729 0
-356 13 0
357 -356 -741 0
-357 356 0
-357 741 0
358 -847 -355 0
-358 847 0
-358 355 0
359 -26 -24 0
-359 26 0
-359 24 0
360 -359 -49 0
-360 359 0
-360 49 0
361 -848 -358 0
-361 848 0
-361 358 0
362 -50 -704 0
-362 50 0
-362 704 0
363 -362 -829 0
-363 362 0
-363 829 0
364 -849 -361 0
-364 849 0
-364 361 0
365 -24 -14 0
-365 24 0
-365 14 0
366 -365 -723 0
-366 365 0
-366 723 0
367 -850 -364 0
-367 850 0
-367 364 0
368 -23 -773 0
-368 23 0
-368 773 0
369 -368 -713 0
-369 368 0
-369 713 0
370 -851 -367 0
-370 851 0
-370 367 0
371 -765 -20 0
-371 765 0
-371 20 0
372 -371 -48 0
-372 371 0
-372 48 0
373 -852 -370 0
-373 852 0
-373 370 0
374 -38 -7 0
-374 38 0
-374 7 0
375 -374 -741 0
-375 374 0
-375 741 0
376 -853 -373 0
-376 853 0
-376 373 0
377 -727 -28 0
-377 727 0
-377 28 0
378 -377 -711 0
-378 377 0
-378 711 0
379 -854 -376 0
-379 854 0
-379 376 0
380 -21 -701 0
-380 21 0
-380 701 0
381 -380 -710 0
-381 380 0
-381 710 0
382 -855 -379 0
-382 855 0
-382 379 0
383 -50 -33 0
-383 50 0
-383 33 0
384 -383 -708 0
-384 383 0
-384 708 0
385 -856 -382 0
-385 856 0
-385 382 0
386 -35 -2 0
-386 35 0
-386 2 0
387 -386 -3 0
-387 386 0
-387 3 0
388 -857 -385 0
-388 857 0
-388 385 0
389 -20 -797 0
-389 20 0
-389 797 0
390 -389 -705 0
-390 389 0
-390 705 0
391 -858 -388 0
-391 858 0
-391 388 0
392 -26 -23 0
-392 26 0
-392 23 0
393 -392 -36 0
-393 392 0
-393 36 0
394 -859 -391 0
-394 859 0
-394 391 0
395 -30 -27 0
-395 30 0
-395 27 0
396 -395 -702 0
-396 395 0
-396 702 0
397 -860 -394 0
-397 860 0
-397 394 0
398 -30 -779 0
-398 30 0
-398 779 0
399 -398 -28 0
-399 398 0
-399 28 0
400 -861 -397 0
-400 861 0
-400 397 0
401 -754 -1 0
-401 754 0
-401 1 0
402 -401 -799 0
-402 401 0
-402 799 0
403 -862 -400 0
-403 862 0
-403 400 0
404 -738 -829 0
-404 738 0
-404 829 0
405 -404 -10 0
-405 404 0
-405 10 0
406 -863 -403 0
-406 863 0
-406 403 0
407 -829 -713 0
-407 829 0
-407 713 0
408 -407 -10 0
-408 407 0
-408 10 0
409 -864 -406 0
-409 864 0
-409 406 0
410 -47 -704 0
-410 47 0
-410 704 0
411 -410 -12 0
-411 410 0
-411 12 0
412 -865 -409 0
-412 865 0
-412 409 0
413 -23 -746 0
-413 23 0
-413 746 0
414 -413 -39 0
-414 413 0
-414 39 0
415 -866 -412 0
-415 866 0
-415 412 0
416 -818 -32 0
-416 818 0
-416 32 0
417 -416 -49 0
-417 416 0
-417 49 0
418 -867 -415 0
-418 867 0
-418 415 0
419 -29 -17 0
-419 29 0
-419 17 0
420 -419 -40 0
-420 419 0
-420 40 0
421 -868 -418 0
-421 868 0
-421 418 0
422 -741 -11 0
-422 741 0
-422 11 0
423 -422 -757 0
-423 422 0
-423 757 0
424 -869 -421 0
-424 869 0
-424 421 0
425 -16 -1 0
-425 16 0
-425 1 0
426 -425 -40 0
-426 425 0
-426 40 0
427 -870 -424 0
-427 870 0
-427 424 0
428 -33 -19 0
-428 33 0
-428 19 0
429 -428 -28 0
-429 428 0
-429 28 0
430 -871 -427 0
-430 871 0
-430 427 0
431 -742 -707 0
-431 742 0
-431 707 0
432 -431 -872 0
-432 431 0
-432 872 0
433 -873 -430 0
-433 873 0
-433 430 0
434 -185 -49 0
-434 185 0
-434 49 0
435 -874 -433 0
-435 874 0
-435 433 0
436 -23 -21 0
-436 23 0
-436 21 0
437 -436 -737 0
-437 436 0
-437 737 0
438 -875 -435 0
-438 875 0
-438 435 0
439 -752 -22 0
-439 752 0
-439 22 0
440 -439 -710 0
-440 439 0
-440 710 0
441 -876 -438 0
-441 876 0
-441 438 0
442 -742 -19 0
-442 742 0
-442 19 0
443 -442 -35 0
-443 442 0
-443 35 0
444 -877 -441 0
-444 877 0
-444 441 0
445 -31 -23 0
-445 31 0
-445 23 0
446 -445 -708 0
-446 445 0
-446 708 0
447 -878 -444 0
-447 878 0
-447 444 0
448 -31 -797 0
-448 31 0
-448 797 0
449 -448 -39 0
-449 448 0
-449 39 0
450 -879 -447 0
-450 879 0
-450 447 0
451 -44 -720 0
-451 44 0
-451 720 0
452 -451 -12 0
-452 451 0
-452 12 0
453 -880 -450 0
-453 880 0
-453 450 0
454 -37 -752 0
-454 37 0
-454 752 0
455 -454 -738 0
-455 454 0
-455 738 0
456 -881 -453 0
-456 881 0
-456 453 0
457 -754 -44 0
-457 754 0
-457 44 0
458 -457 -20 0
-458 457 0
-458 20 0
459 -882 -456 0
-459 882 0
-459 456 0
460 -18 -701 0
-460 18 0
-460 701 0
461 -460 -737 0
-461 460 0
-461 737 0
462 -883 -459 0
-462 883 0
-462 459 0
463 -30 -829 0
-463 30 0
-463 829 0
464 -463 -34 0
-464 463 0
-464 34 0
465 -884 -462 0
-465 884 0
-465 462 0
466 -752 -5 0
-466 752 0
-466 5 0
467 -466 -21 0
-467 466 0
-467 21 0
468 -885 -465 0
-468 885 0
-468 465 0
469 -757 -723 0
-469 757 0
-469 723 0
470 -469 -9 0
-470 469 0
-470 9 0
471 -886 -468 0
-471 886 0
-471 468 0
472 -775 -719 0
-472 775 0
-472 719 0
473 -472 -832 0
-473 472 0
-473 832 0
474 -887 -471 0
-474 887 0
-474 471 0
475 -818 -718 0
-475 818 0
-475 718 0
476 -475 -31 0
-476 475 0
-476 31 0
477 -888 -474 0
-477 888 0
-477 474 0
478 -46 -711 0
-478 46 0
-478 711 0
479 -478 -697 0
-479 478 0
-479 697 0
480 -889 -477 0
-480 889 0
-480 477 0
481 -26 -720 0
-481 26 0
-481 720 0
482 -481 -28 0
-482 481 0
-482 28 0
483 -890 -480 0
-483 890 0
-483 480 0
484 -725 -26 0
-484 725 0
-484 26 0
485 -484 -3 0
-485 484 0
-485 3 0
486 -891 -483 0
-486 891 0
-486 483 0
487 -43 -752 0
-487 43 0
-487 752 0
488 -487 -832 0
-488 487 0
-488 832 0
489 -892 -486 0
-489 892 0
-489 486 0
490 -754 -725 0
-490 754 0
-490 725 0
491 -490 -893 0
-491 490 0
-491 893 0
492 -894 -489 0
-492 894 0
-492 489 0
493 -793 -9 0
-493 793 0
-493 9 0
494 -493 -10 0
-494 493 0
-494 10 0
495 -895 -492 0
-495 895 0
-495 492 0
496 -47 -27 0
-496 47 0
-496 27 0
497 -496 -750 0
-497 496 0
-497 750 0
498 -896 -495 0
-498 896 0
-498 495 0
499 -872 -2 0
-499 872 0
-499 2 0
500 -499 -31 0
-500 499 0
-500 31 0
501 -897 -498 0
-501 897 0
-501 498 0
502 -783 -13 0
-502 783 0
-502 13 0
503 -502 -18 0
-503 502 0
-503 18 0
504 -898 -501 0
-504 898 0
-504 501 0
505 -763 -2 0
-505 763 0
-505 2 0
506 -505 -41 0
-506 505 0
-506 41 0
507 -899 -504 0
-507 899 0
-507 504 0
508 -775 -744 0
-508 775 0
-508 744 0
509 -508 -738 0
-509 508 0
-509 738 0
510 -900 -507 0
-510 900 0
-510 507 0
511 -21 -710 0
-511 21 0
-511 710 0
512 -511 -697 0
-512 511 0
-512 697 0
513 -901 -510 0
-513 901 0
-513 510 0
514 -757 -829 0
-514 757 0
-514 829 0
515 -514 -35 0
-515 514 0
-515 35 0
516 -902 -513 0
-516 902 0
-516 513 0
517 -752 -696 0
-517 752 0
-517 696 0
518 -517 -705 0
-518 517 0
-518 705 0
519 -903 -516 0
-519 903 0
-519 516 0
520 -31 -2 0
-520 31 0
-520 2 0
521 -520 -720 0
-521 520 0
-521 720 0
522 -904 -519 0
-522 904 0
-522 519 0
523 -834 -719 0
-523 834 0
-523 719 0
524 -523 -799 0
-524 523 0
-524 799 0
525 -905 -522 0
-525 905 0
-525 522 0
526 -779 -797 0
-526 779 0
-526 797 0
527 -526 -36 0
-527 526 0
-527 36 0
528 -906 -525 0
-528 906 0
-528 525 0
529 -742 -779 0
-529 742 0
-529 779 0
530 -529 -697 0
-530 529 0
-530 697 0
531 -907 -528 0
-531 907 0
-531 528 0
532 -30 -11 0
-532 30 0
-532 11 0
533 -532 -779 0
-533 532 0
-533 779 0
534 -908 -531 0
-534 908 0
-534 531 0
535 -42 -22 0
-535 42 0
-535 22 0
536 -535 -38 0
-536 535 0
-536 38 0
537 -909 -534 0
-537 909 0
-537 534 0
538 -33 -2 0
-538 33 0
-538 2 0
539 -538 -24 0
-539 538 0
-539 24 0
540 -910 -537 0
-540 910 0
-540 537 0
541 -42 -763 0
-541 42 0
-541 763 0
542 -541 -707 0
-542 541 0
-542 707 0
543 -911 -540 0
-543 911 0
-543 540 0
544 -793 -13 0
-544 793 0
-544 13 0
545 -544 -48 0
-545 544 0
-545 48 0
546 -912 -543 0
-546 912 0
-546 543 0
547 -718 -701 0
-547 718 0
-547 701 0
548 -547 -705 0
-548 547 0
-548 705 0
549 -913 -546 0
-549 913 0
-549 546 0
550 -21 -704 0
-550 21 0
-550 704 0
551 -550 -697 0
-551 550 0
-551 697 0
552 -914 -549 0
-552 914 0
-552 549 0
553 -28 -719 0
-553 28 0
-553 719 0
554 -553 -15 0
-554 553 0
-554 15 0
555 -915 -552 0
-555 915 0
-555 552 0
556 -6 -716 0
-556 6 0
-556 716 0
557 -556 -761 0
-557 556 0
-557 761 0
558 -916 -555 0
-558 916 0
-558 555 0
559 -718 -5 0
-559 718 0
-559 5 0
560 -559 -723 0
-560 559 0
-560 723 0
561 -917 -558 0
-561 917 0
-561 558 0
562 -43 -727 0
-562 43 0
-562 727 0
563 -562 -731 0
-563 562 0
-563 731 0
564 -918 -561 0
-564 918 0
-564 561 0
565 -48 -696 0
-565 48 0
-565 696 0
566 -565 -735 0
-566 565 0
-566 735 0
567 -919 -564 0
-567 919 0
-567 564 0
568 -779 -2 0
-568 779 0
-568 2 0
569 -568 -39 0
-569 568 0
-569 39 0
570 -920 -567 0
-570 920 0
-570 567 0
571 -21 -5 0
-571 21 0
-571 5 0
572 -571 -757 0
-572 571 0
-572 757 0
573 -921 -570 0
-573 921 0
-573 570 0
574 -44 -31 0
-574 44 0
-574 31 0
575 -574 -46 0
-575 574 0
-575 46 0
576 -922 -573 0
-576 922 0
-576 573 0
577 -741 -34 0
-577 741 0
-577 34 0
578 -577 -697 0
-578 577 0
-578 697 0
579 -923 -576 0
-579 923 0
-579 576 0
580 -35 -763 0
-580 35 0
-580 763 0
581 -580 -15 0
-581 580 0
-581 15 0
582 -924 -579 0
-582 924 0
-582 579 0
583 -30 -752 0
-583 30 0
-583 752 0
584 -583 -779 0
-584 583 0
-584 779 0
585 -925 -582 0
-585 925 0
-585 582 0
586 -30 -707 0
-586 30 0
-586 707 0
587 -586 -11 0
-587 586 0
-587 11 0
588 -926 -585 0
-588 926 0
-588 585 0
589 -872 -752 0
-589 872 0
-589 752 0
590 -589 -765 0
-590 589 0
-590 765 0
591 -927 -588 0
-591 927 0
-591 588 0
592 -777 -4 0
-592 777 0
-592 4 0
593 -592 -738 0
-593 592 0
-593 738 0
594 -928 -591 0
-594 928 0
-594 591 0
595 -742 -701 0
-595 742 0
-595 701 0
596 -595 -34 0
-596 595 0
-596 34 0
597 -929 -594 0
-597 929 0
-597 594 0
598 -11 -7 0
-598 11 0
-598 7 0
599 -598 -26 0
-599 598 0
-599 26 0
600 -930 -597 0
-600 930 0
-600 597 0
601 -731 -23 0
-601 731 0
-601 23 0
602 -601 -40 0
-602 601 0
-602 40 0
603 -931 -600 0
-603 931 0
-603 600 0
604 -754 -14 0
-604 754 0
-604 14 0
605 -604 -738 0
-605 604 0
-605 738 0
606 -932 -603 0
-606 932 0
-606 603 0
607 -502 -12 0
-607 502 0
-607 12 0
608 -933 -606 0
-608 933 0
-608 606 0
609 -750 -775 0
-609 750 0
-609 775 0
610 -609 -708 0
-610 609 0
-610 708 0
611 -934 -608 0
-611 934 0
-611 608 0
612 -799 -28 0
-612 799 0
-612 28 0
613 -612 -750 0
-613 612 0
-613 750 0
614 -935 -611 0
-614 935 0
-614 611 0
615 -36 -725 0
-615 36 0
-615 725 0
616 -615 -10 0
-616 615 0
-616 10 0
617 -936 -614 0
-617 936 0
-617 614 0
618 -723 -826 0
-618 723 0
-618 826 0
619 -618 -708 0
-619 618 0
-619 708 0
620 -937 -617 0
-620 937 0
-620 617 0
621 -757 -718 0
-621 757 0
-621 718 0
622 -621 -744 0
-622 621 0
-622 744 0
623 -938 -620 0
-623 938 0
-623 620 0
624 -45 -13 0
-624 45 0
-624 13 0
625 -624 -14 0
-625 624 0
-625 14 0
626 -939 -623 0
-626 939 0
-626 623 0
627 -744 -834 0
-627 744 0
-627 834 0
628 -627 -39 0
-628 627 0
-628 39 0
629 -940 -626 0
-629 940 0
-629 626 0
630 -22 -4 0
-630 22 0
-630 4 0
631 -630 -47 0
-631 630 0
-631 47 0
632 -941 -629 0
-632 941 0
-632 629 0
633 -36 -872 0
-633 36 0
-633 872 0
634 -633 -697 0
-634 633 0
-634 697 0
635 -942 -632 0
-635 942 0
-635 632 0
636 -25 -716 0
-636 25 0
-636 716 0
637 -636 -31 0
-637 636 0
-637 31 0
638 -943 -635 0
-638 943 0
-638 635 0
639 -729 -773 0
-639 729 0
-639 773 0
640 -639 -750 0
-640 639 0
-640 750 0
641 -944 -638 0
-641 944 0
-641 638 0
642 -26 -707 0
-642 26 0
-642 707 0
643 -642 -9 0
-643 642 0
-643 9 0
644 -945 -641 0
-644 945 0
-644 641 0
645 -46 -775 0
-645 46 0
-645 775 0
646 -645 -10 0
-646 645 0
-646 10 0
647 -946 -644 0
-647 946 0
-647 644 0
648 -44 -43 0
-648 44 0
-648 43 0
649 -648 -39 0
-649 648 0
-649 39 0
650 -947 -647 0
-650 947 0
-650 647 0
651 -818 -783 0
-651 818 0
-651 783 0
652 -651 -15 0
-652 651 0
-652 15 0
653 -948 -650 0
-653 948 0
-653 650 0
654 -829 -14 0
-654 829 0
-654 14 0
655 -654 -32 0
-655 654 0
-655 32 0
656 -949 -653 0
-656 949 0
-656 653 0
657 -783 -5 0
-657 783 0
-657 5 0
658 -657 -41 0
-658 657 0
-658 41 0
659 -950 -656 0
-659 950 0
-659 656 0
660 -829 -21 0
-660 829 0
-660 21 0
661 -660 -729 0
-661 660 0
-661 729 0
662 -951 -659 0
-662 951 0
-662 659 0
663 -42 -718 0
-663 42 0
-663 718 0
664 -663 -799 0
-664 663 0
-664 799 0
665 -952 -662 0
-665 952 0
-665 662 0
666 -50 -26 0
-666 50 0
-666 26 0
667 -666 -12 0
-667 666 0
-667 12 0
668 -953 -665 0
-668 953 0
-668 665 0
669 -777 -30 0
-669 777 0
-669 30 0
670 -669 -10 0
-670 669 0
-670 10 0
671 -954 -668 0
-671 954 0
-671 668 0
672 -872 -727 0
-672 872 0
-672 727 0
673 -672 -829 0
-673 672 0
-673 829 0
674 -955 -671 0
-674 955 0
-674 671 0
675 -469 -39 0
-675 469 0
-675 39 0
676 -956 -674 0
-676 956 0
-676 674 0
677 -29 -742 0
-677 29 0
-677 742 0
678 -677 -702 0
-678 677 0
-678 702 0
679 -957 -676 0
-679 957 0
-679 676 0
680 -761 -777 0
-680 761 0
-680 777 0
681 -680 -34 0
-681 680 0
-681 34 0
682 -958 -679 0
-682 958 0
-682 679 0
683 -49 -26 0
-683 49 0
-683 26 0
684 -683 -34 0
-684 683 0
-684 34 0
685 -959 -682 0
-685 959 0
-685 682 0
686 -793 -716 0
-686 793 0
-686 716 0
687 -686 -24 0
-687 686 0
-687 24 0
688 -960 -685 0
-688 960 0
-688 685 0
689 -152 -710 0
-689 152 0
-689 710 0
690 -961 -688 0
-690 961 0
-690 688 0
691 -436 -29 0
-691 436 0
-691 29 0
692 -962 -690 0
-692 962 0
-692 690 0
693 -41 -872 0
-693 41 0
-693 872 0
694 -693 -9 0
-694 693 0
-694 9 0
695 -963 -692 0
-695 963 0
-695 692 0
-696 -1 0
696 1 0
-697 -3 0
697 3 0
-698 -54 0
698 54 0
-699 -52 0
699 52 0
-700 -57 0
700 57 0
-701 -5 0
701 5 0
-702 -10 0
702 10 0
-703 -60 0
703 60 0
-704 -11 0
704 11 0
-705 -12 0
705 12 0
-706 -63 0
706 63 0
-707 -14 0
707 14 0
-708 -15 0
708 15 0
-709 -66 0
709 66 0
-710 -16 0
710 16 0
-711 -18 0
711 18 0
-712 -69 0
712 69 0
-713 -21 0
713 21 0
-714 -72 0
714 72 0
-715 -22 0
715 22 0
-716 -4 0
716 4 0
-717 -75 0
717 75 0
-718 -23 0
718 23 0
-719 -13 0
719 13 0
-720 -24 0
720 24 0
-721 -78 0
721 78 0
-722 -81 0
722 81 0
-723 -28 0
723 28 0
-724 -84 0
724 84 0
-725 -29 0
725 29 0
-726 -87 0
726 87 0
-727 -30 0
727 30 0
-728 -90 0
728 90 0
-729 -32 0
729 32 0
-730 -93 0
730 93 0
-731 -34 0
731 34 0
-732 -96 0
732 96 0
-733 -99 0
733 99 0
-734 -102 0
734 102 0
-735 -35 0
735 35 0
-736 -105 0
736 105 0
-737 -39 0
737 39 0
-738 -40 0
738 40 0
-739 -108 0
739 108 0
-740 -111 0
740 111 0
-741 -41 0
741 41 0
-742 -20 0
742 20 0
-743 -114 0
743 114 0
-744 -43 0
744 43 0
-745 -117 0
745 117 0
-746 -17 0
746 17 0
-747 -120 0
747 120 0
-748 -123 0
748 123 0
-749 -126 0
749 126 0
-750 -46 0
750 46 0
-751 -129 0
751 129 0
-752 -27 0
752 27 0
-753 -132 0
753 132 0
-754 -47 0
754 47 0
-755 -135 0
755 135 0
-756 -138 0
756 138 0
-757 -48 0
757 48 0
-758 -141 0
758 141 0
-759 -144 0
759 144 0
-760 -147 0
760 147 0
-761 -49 0
761 49 0
-762 -150 0
762 150 0
-763 -19 0
763 19 0
-764 -153 0
764 153 0
-765 -38 0
765 38 0
-766 -156 0
766 156 0
-767 -159 0
767 159 0
-768 -162 0
768 162 0
-769 -165 0
769 165 0
-770 -168 0
770 168 0
-771 -171 0
771 171 0
-772 -174 0
772 174 0
-773 -8 0
773 8 0
-774 -177 0
774 177 0
-775 -45 0
775 45 0
-776 -180 0
776 180 0
-777 -37 0
777 37 0
-778 -183 0
778 183 0
-779 -6 0
779 6 0
-780 -186 0
780 186 0
-781 -189 0
781 189 0
-782 -192 0
782 192 0
-783 -25 0
783 25 0
-784 -195 0
784 195 0
-785 -198 0
785 198 0
-786 -201 0
786 201 0
-787 -203 0
787 203 0
-788 -206 0
788 206 0
-789 -209 0
789 209 0
-790 -211 0
790 211 0
-791 -214 0
791 214 0
-792 -217 0
792 217 0
-793 -50 0
793 50 0
-794 -220 0
794 220 0
-795 -223 0
795 223 0
-796 -226 0
796 226 0
-797 -2 0
797 2 0
-798 -229 0
798 229 0
-799 -31 0
799 31 0
-800 -232 0
800 232 0
-801 -235 0
801 235 0
-802 -238 0
802 238 0
-803 -241 0
803 241 0
-804 -244 0
804 244 0
-805 -247 0
805 247 0
-806 -250 0
806 250 0
-807 -253 0
807 253 0
-808 -256 0
808 256 0
-809 -259 0
809 259 0
-810 -262 0
810 262 0
-811 -265 0
811 265 0
-812 -268 0
812 268 0
-813 -271 0
813 271 0
-814 -274 0
814 274 0
-815 -277 0
815 277 0
-816 -280 0
816 280 0
-817 -283 0
817 283 0
-818 -44 0
818 44 0
-819 -286 0
819 286 0
-820 -289 0
820 289 0
-821 -292 0
821 292 0
-822 -295 0
822 295 0
-823 -298 0
823 298 0
-824 -301 0
824 301 0
-825 -304 0
825 304 0
-826 -7 0
826 7 0
-827 -307 0
827 307 0
-828 -310 0
828 310 0
-829 -26 0
829 26 0
-830 -313 0
830 313 0
-831 -316 0
831 316 0
-832 -36 0
832 36 0
-833 -319 0
833 319 0
-834 -42 0
834 42 0
-835 -322 0
835 322 0
-836 -325 0
836 325 0
-837 -327 0
837 327 0
-838 -330 0
838 330 0
-839 -333 0
839 333 0
-840 -336 0
840 336 0
-841 -339 0
841 339 0
-842 -342 0
842 342 0
-843 -345 0
843 345 0
-844 -348 0
844 348 0
-845 -351 0
845 351 0
-846 -354 0
846 354 0
-847 -357 0
847 357 0
-848 -360 0
848 360 0
-849 -363 0
849 363 0
-850 -366 0
850 366 0
-851 -369 0
851 369 0
-852 -372 0
852 372 0
-853 -375 0
853 375 0
-854 -378 0
854 378 0
-855 -381 0
855 381 0
-856 -384 0
856 384 0
-857 -387 0
857 387 0
-858 -390 0
858 390 0
-859 -393 0
859 393 0
-860 -396 0
860 396 0
-861 -399 0
861 399 0
-862 -402 0
862 402 0
-863 -405 0
863 405 0
-864 -408 0
864 408 0
-865 -411 0
865 411 0
-866 -414 0
866 414 0
-867 -417 0
867 417 0
-868 -420 0
868 420 0
-869 -423 0
869 423 0
-870 -426 0
870 426 0
-871 -429 0
871 429 0
-872 -33 0
872 33 0
-873 -432 0
873 432 0
-874 -434 0
874 434 0
-875 -437 0
875 437 0
-876 -440 0
876 440 0
-877 -443 0
877 443 0
-878 -446 0
878 446 0
-879 -449 0
879 449 0
-880 -452 0
880 452 0
-881 -455 0
881 455 0
-882 -458 0
882 458 0
-883 -461 0
883 461 0
-884 -464 0
884 464 0
-885 -467 0
885 467 0
-886 -470 0
886 470 0
-887 -473 0
887 473 0
-888 -476 0
888 476 0
-889 -479 0
889 479 0
-890 -482 0
890 482 0
-891 -485 0
891 485 0
-892 -488 0
892 488 0
-893 -9 0
893 9 0
-894 -491 0
894 491 0
-895 -494 0
895 494 0
-896 -497 0
896 497 0
-897 -500 0
897 500 0
-898 -503 0
898 503 0
-899 -506 0
899 506 0
-900 -509 0
900 509 0
-901 -512 0
901 512 0
-902 -515 0
902 515 0
-903 -518 0
903 518 0
-904 -521 0
904 521 0
-905 -524 0
905 524 0
-906 -527 0
906 527 0
-907 -530 0
907 530 0
-908 -533 0
908 533 0
-909 -536 0
909 536 0
-910 -539 0
910 539 0
-911 -542 0
911 542 0
-912 -545 0
912 545 0
-913 -548 0
913 548 0
-914 -551 0
914 551 0
-915 -554 0
915 554 0
-916 -557 0
916 557 0
-917 -560 0
917 560 0
-918 -563 0
918 563 0
-919 -566 0
919 566 0
-920 -569 0
920 569 0
-921 -572 0
921 572 0
-922 -575 0
922 575 0
-923 -578 0
923 578 0
-924 -581 0
924 581 0
-925 -584 0
925 584 0
-926 -587 0
926 587 0
-927 -590 0
927 590 0
-928 -593 0
928 593 0
-929 -596 0
929 596 0
-930 -599 0
930 599 0
-931 -602 0
931 602 0
-932 -605 0
932 605 0
-933 -607 0
933 607 0
-934 -610 0
934 610 0
-935 -613 0
935 613 0
-936 -616 0
936 616 0
-937 -619 0
937 619 0
-938 -622 0
938 622 0
-939 -625 0
939 625 0
-940 -628 0
940 628 0
-941 -631 0
941 631 0
-942 -634 0
942 634 0
-943 -637 0
943 637 0
-944 -640 0
944 640 0
-945 -643 0
945 643 0
-946 -646 0
946 646 0
-947 -649 0
947 649 0
-948 -652 0
948 652 0
-949 -655 0
949 655 0
-950 -658 0
950 658 0
-951 -661 0
951 661 0
-952 -664 0
952 664 0
-953 -667 0
953 667 0
-954 -670 0
954 670 0
-955 -673 0
955 673 0
-956 -675 0
956 675 0
-957 -678 0
957 678 0
-958 -681 0
958 681 0
-959 -684 0
959 684 0
-960 -687 0
960 687 0
-961 -689 0
961 689 0
-962 -691 0
962 691 0
-963 -694 0
963 694 0
695 0
